p cnf 18 21
12 1 5
12 -2 5
12 -5 -1 2
13 -1 6
13 2 6
13 -6 1 -2
14 3 7
14 -4 7
14 -7 -3 4
15 -3 8
15 4 8
15 -8 3 -4
16 -5 -6 9
16 -9 5
16 -9 6
17 -7 -8 10
17 -10 7
17 -10 8
18 9 11
18 10 11
18 -11 -9 -10